%chk=bpy_1474.chk
%mem=8GB
%nprocshared=8
#p M06-2X/6-311+G(d,p) opt freq

2,2-bipiridina - ejemplo LigandForge

0 1
C     -2.91973741    -0.91123302    -0.43432553
C     -3.49699059     0.20892307     0.14572709
C     -2.65720530     1.19060047     0.63916904
N     -1.30784066     1.12462922     0.59043349
C     -0.74144724     0.02296052     0.01998056
C      0.74144730    -0.02296566    -0.01997069
C      1.53068813     1.00672481     0.49860182
C      2.91973668     0.91123775     0.43431560
C      3.49699021    -0.20892832    -0.14571826
C      2.65720519    -1.19060788    -0.63915588
N      1.30784079    -1.12463262    -0.59042803
C     -1.53068844    -1.00672193    -0.49860664
H     -3.54024562    -1.70739298    -0.83516295
H     -4.57371605     0.31470828     0.21183605
H     -3.05874889     2.08717812     1.10277882
H      1.06866650     1.87968191     0.95078296
H      3.54024372     1.70739398     0.83516274
H      4.57371572    -0.31470919    -0.21183654
H      3.05874890    -2.08717502    -1.10278589
H     -1.06866293    -1.87967149    -0.95079778

